p wcnf 137 164 165 
1 100 -113 0 
1 -73 -7 0 
1 -127 -79 0 
1 -86 -36 0 
1 -36 -118 0 
1 -13 -93 0 
1 -129 -29 0 
1 -108 10 0 
1 -35 66 0 
1 23 -85 0 
1 104 -100 0 
1 23 -26 0 
1 -105 -120 0 
1 25 1 0 
1 -108 -99 0 
1 -31 93 0 
1 -11 -25 0 
1 -27 -112 0 
1 -98 6 0 
1 -29 -94 0 
1 68 -23 0 
1 116 -132 0 
1 -119 4 0 
1 81 -33 0 
1 -28 99 0 
1 46 121 0 
1 -55 127 0 
1 43 75 0 
1 -133 23 0 
1 -92 -33 0 
1 122 -52 0 
1 16 120 0 
1 -12 68 0 
1 -9 85 0 
1 -27 -112 0 
1 -20 -79 0 
1 -124 -75 0 
1 87 21 0 
1 -135 71 0 
1 69 27 0 
1 16 36 0 
1 109 43 0 
1 5 -34 0 
1 122 -63 0 
1 -111 103 0 
1 132 -56 0 
1 -71 -69 0 
1 -15 46 0 
1 -105 -12 0 
1 -92 61 0 
1 63 64 0 
1 -93 -103 0 
1 126 -4 0 
1 -80 -116 0 
1 7 -89 0 
1 35 -129 0 
1 -1 99 0 
1 -90 -84 0 
1 125 35 0 
1 -33 -128 0 
1 -44 136 0 
1 -78 33 0 
1 38 26 0 
1 -131 80 0 
1 -94 32 0 
1 -27 -46 0 
1 104 -88 0 
1 -39 -71 0 
1 76 -89 0 
1 14 -26 0 
1 113 22 0 
1 133 -13 0 
1 45 -38 0 
1 1 76 0 
1 14 -55 0 
1 -117 94 0 
1 47 -48 0 
1 17 45 0 
1 108 -37 0 
1 9 110 0 
1 -68 -124 0 
1 32 -116 0 
1 -120 50 0 
1 105 17 0 
1 -62 77 0 
1 -131 -7 0 
1 -106 -10 0 
1 75 -19 0 
1 -87 136 0 
1 57 29 0 
1 -8 23 0 
1 55 -137 0 
1 -17 -24 0 
1 8 46 0 
1 62 -10 0 
1 36 -47 0 
1 22 25 0 
1 -32 45 0 
1 -41 -103 0 
1 130 41 0 
1 -59 -29 0 
1 29 94 0 
1 61 -23 0 
1 -5 83 0 
1 74 -57 0 
1 128 -135 0 
1 24 73 0 
1 125 -45 0 
1 -2 63 0 
1 -76 91 0 
1 -62 17 0 
1 133 27 0 
1 59 -48 0 
1 7 63 0 
1 109 114 0 
1 24 35 0 
1 -118 -132 0 
1 82 108 0 
1 37 129 0 
1 -69 22 0 
1 89 -113 0 
1 -6 129 0 
1 -113 30 0 
1 26 92 0 
1 -101 123 0 
1 -40 137 0 
1 128 119 0 
1 -17 100 0 
1 88 -49 0 
1 -13 25 0 
1 106 42 0 
1 38 86 0 
1 83 111 0 
1 104 -75 0 
1 -117 1 0 
1 40 -57 0 
1 -29 -75 0 
1 -136 -64 0 
1 12 -62 0 
1 -30 109 0 
1 70 -74 0 
1 112 -97 0 
1 79 20 0 
1 129 86 0 
1 92 94 0 
1 -14 -80 0 
1 -108 87 0 
1 -97 89 0 
1 47 -60 0 
1 -112 -84 0 
1 -136 -74 0 
1 55 -56 0 
1 -117 -26 0 
1 -68 -16 0 
1 -42 64 0 
1 88 102 0 
1 -107 -29 0 
1 -64 126 0 
1 -99 -74 0 
1 -118 -98 0 
1 76 42 0 
1 98 4 0 
1 -68 21 0 
1 -68 71 0 
